Problem:    
Rows:       26
Columns:    160 (160 integer, 0 binary)
Non-zeros:  280
Status:     INTEGER OPTIMAL
Objective:  Maintenance_costs = 18871 (MINimum)

   No.   Row name        Activity     Lower bound   Upper bound
------ ------------    ------------- ------------- -------------
     1 Anvers_base_supply_during_year_0
                                 545           545             = 
     2 Bruxelles_base_supply_during_year_0
                                 375           375             = 
     3 Charleroi_base_supply_during_year_0
                                 727           727             = 
     4 Gand_base_supply_during_year_0
                                 121           121             = 
     5 Hasselt_base_supply_during_year_0
                                  21            21             = 
     6 Liege_acid_supply_during_year_0
                                1818          1818             = 
     7 Truck_10_time_check_during_year_0
                             2.42857             0               
     8 Truck_11_time_check_during_year_0
                                   0             0               
     9 Truck_12_time_check_during_year_0
                             2.42857             0               
    10 Truck_13_time_check_during_year_0
                            0.142857             0               
    11 Truck_14_time_check_during_year_0
                             3.42857             0               
    12 Truck_15_time_check_during_year_0
                                   2             0               
    13 Truck_16_time_check_during_year_0
                                   0             0               
    14 Truck_17_time_check_during_year_0
                             6.71429             0               
    15 Truck_18_time_check_during_year_0
                             1.28571             0               
    16 Truck_19_time_check_during_year_0
                                   0             0               
    17 Truck_1_time_check_during_year_0
                                   0             0               
    18 Truck_20_time_check_during_year_0
                            0.285714             0               
    19 Truck_2_time_check_during_year_0
                                   0             0               
    20 Truck_3_time_check_during_year_0
                                   0             0               
    21 Truck_4_time_check_during_year_0
                                   0             0               
    22 Truck_5_time_check_during_year_0
                                   0             0               
    23 Truck_6_time_check_during_year_0
                                   0             0               
    24 Truck_7_time_check_during_year_0
                             84.2857             0               
    25 Truck_8_time_check_during_year_0
                             4.57143             0               
    26 Truck_9_time_check_during_year_0
                            0.857143             0               

   No. Column name       Activity     Lower bound   Upper bound
------ ------------    ------------- ------------- -------------
     1 Truck_10_buy *              0             0            12 
     2 Truck_10_sell
                    *             11             0            12 
     3 Truck_11_buy *              0             0            12 
     4 Truck_11_sell
                    *             12             0            12 
     5 Truck_12_buy *              1             0            12 
     6 Truck_12_sell
                    *              7             0            12 
     7 Truck_13_buy *              0             0            12 
     8 Truck_13_sell
                    *             12             0            12 
     9 Truck_14_buy *              0             0            12 
    10 Truck_14_sell
                    *             10             0            12 
    11 Truck_15_buy *              1             0            12 
    12 Truck_15_sell
                    *             12             0            12 
    13 Truck_16_buy *             12             0            12 
    14 Truck_16_sell
                    *             12             0            12 
    15 Truck_17_buy *              0             0            12 
    16 Truck_17_sell
                    *             12             0            12 
    17 Truck_18_buy *              0             0            12 
    18 Truck_18_sell
                    *              5             0            12 
    19 Truck_19_buy *              0             0            12 
    20 Truck_19_sell
                    *              1             0            12 
    21 Truck_1_buy  *              0             0            12 
    22 Truck_1_sell *              0             0            12 
    23 Truck_20_buy *              1             0            12 
    24 Truck_20_sell
                    *             10             0            12 
    25 Truck_2_buy  *              0             0            12 
    26 Truck_2_sell *              0             0            12 
    27 Truck_3_buy  *              0             0            12 
    28 Truck_3_sell *              0             0            12 
    29 Truck_4_buy  *              0             0            12 
    30 Truck_4_sell *              0             0            12 
    31 Truck_5_buy  *              0             0            12 
    32 Truck_5_sell *              0             0            12 
    33 Truck_6_buy  *              0             0            12 
    34 Truck_6_sell *              0             0            12 
    35 Truck_7_buy  *              1             0            12 
    36 Truck_7_sell *             12             0            12 
    37 Truck_8_buy  *             11             0            12 
    38 Truck_8_sell *             12             0            12 
    39 Truck_9_buy  *              0             0            12 
    40 Truck_9_sell *             12             0            12 
    41 Route_10_('Liege',_'Anvers')_0
                    *              0             0               
    42 Route_11_('Liege',_'Anvers')_0
                    *              0             0               
    43 Route_12_('Liege',_'Anvers')_0
                    *              0             0               
    44 Route_13_('Liege',_'Anvers')_0
                    *              0             0               
    45 Route_14_('Liege',_'Anvers')_0
                    *            301             0               
    46 Route_15_('Liege',_'Anvers')_0
                    *            240             0               
    47 Route_16_('Liege',_'Anvers')_0
                    *              0             0               
    48 Route_17_('Liege',_'Anvers')_0
                    *              0             0               
    49 Route_18_('Liege',_'Anvers')_0
                    *              0             0               
    50 Route_19_('Liege',_'Anvers')_0
                    *              4             0               
    51 Route_1_('Liege',_'Anvers')_0
                    *              0             0               
    52 Route_20_('Liege',_'Anvers')_0
                    *              0             0               
    53 Route_2_('Liege',_'Anvers')_0
                    *              0             0               
    54 Route_3_('Liege',_'Anvers')_0
                    *              0             0               
    55 Route_4_('Liege',_'Anvers')_0
                    *              0             0               
    56 Route_5_('Liege',_'Anvers')_0
                    *              0             0               
    57 Route_6_('Liege',_'Anvers')_0
                    *              0             0               
    58 Route_7_('Liege',_'Anvers')_0
                    *              0             0               
    59 Route_8_('Liege',_'Anvers')_0
                    *              0             0               
    60 Route_9_('Liege',_'Anvers')_0
                    *              0             0               
    61 Route_10_('Liege',_'Bruxelles')_0
                    *              0             0               
    62 Route_11_('Liege',_'Bruxelles')_0
                    *              0             0               
    63 Route_12_('Liege',_'Bruxelles')_0
                    *              0             0               
    64 Route_13_('Liege',_'Bruxelles')_0
                    *             15             0               
    65 Route_14_('Liege',_'Bruxelles')_0
                    *              1             0               
    66 Route_15_('Liege',_'Bruxelles')_0
                    *              0             0               
    67 Route_16_('Liege',_'Bruxelles')_0
                    *              0             0               
    68 Route_17_('Liege',_'Bruxelles')_0
                    *             12             0               
    69 Route_18_('Liege',_'Bruxelles')_0
                    *              0             0               
    70 Route_19_('Liege',_'Bruxelles')_0
                    *              0             0               
    71 Route_1_('Liege',_'Bruxelles')_0
                    *              0             0               
    72 Route_20_('Liege',_'Bruxelles')_0
                    *              2             0               
    73 Route_2_('Liege',_'Bruxelles')_0
                    *              0             0               
    74 Route_3_('Liege',_'Bruxelles')_0
                    *              0             0               
    75 Route_4_('Liege',_'Bruxelles')_0
                    *              0             0               
    76 Route_5_('Liege',_'Bruxelles')_0
                    *              0             0               
    77 Route_6_('Liege',_'Bruxelles')_0
                    *              0             0               
    78 Route_7_('Liege',_'Bruxelles')_0
                    *            345             0               
    79 Route_8_('Liege',_'Bruxelles')_0
                    *              0             0               
    80 Route_9_('Liege',_'Bruxelles')_0
                    *              0             0               
    81 Route_10_('Liege',_'Charleroi')_0
                    *            349             0               
    82 Route_11_('Liege',_'Charleroi')_0
                    *              0             0               
    83 Route_12_('Liege',_'Charleroi')_0
                    *             17             0               
    84 Route_13_('Liege',_'Charleroi')_0
                    *              0             0               
    85 Route_14_('Liege',_'Charleroi')_0
                    *              1             0               
    86 Route_15_('Liege',_'Charleroi')_0
                    *              0             0               
    87 Route_16_('Liege',_'Charleroi')_0
                    *              0             0               
    88 Route_17_('Liege',_'Charleroi')_0
                    *              0             0               
    89 Route_18_('Liege',_'Charleroi')_0
                    *              0             0               
    90 Route_19_('Liege',_'Charleroi')_0
                    *              0             0               
    91 Route_1_('Liege',_'Charleroi')_0
                    *              0             0               
    92 Route_20_('Liege',_'Charleroi')_0
                    *              0             0               
    93 Route_2_('Liege',_'Charleroi')_0
                    *              0             0               
    94 Route_3_('Liege',_'Charleroi')_0
                    *              0             0               
    95 Route_4_('Liege',_'Charleroi')_0
                    *              0             0               
    96 Route_5_('Liege',_'Charleroi')_0
                    *              0             0               
    97 Route_6_('Liege',_'Charleroi')_0
                    *              0             0               
    98 Route_7_('Liege',_'Charleroi')_0
                    *              0             0               
    99 Route_8_('Liege',_'Charleroi')_0
                    *             32             0               
   100 Route_9_('Liege',_'Charleroi')_0
                    *            328             0               
   101 Route_10_('Liege',_'Gand')_0
                    *              0             0               
   102 Route_11_('Liege',_'Gand')_0
                    *              0             0               
   103 Route_12_('Liege',_'Gand')_0
                    *              0             0               
   104 Route_13_('Liege',_'Gand')_0
                    *              2             0               
   105 Route_14_('Liege',_'Gand')_0
                    *              0             0               
   106 Route_15_('Liege',_'Gand')_0
                    *             93             0               
   107 Route_16_('Liege',_'Gand')_0
                    *              0             0               
   108 Route_17_('Liege',_'Gand')_0
                    *              0             0               
   109 Route_18_('Liege',_'Gand')_0
                    *              0             0               
   110 Route_19_('Liege',_'Gand')_0
                    *              0             0               
   111 Route_1_('Liege',_'Gand')_0
                    *              0             0               
   112 Route_20_('Liege',_'Gand')_0
                    *              0             0               
   113 Route_2_('Liege',_'Gand')_0
                    *              0             0               
   114 Route_3_('Liege',_'Gand')_0
                    *              0             0               
   115 Route_4_('Liege',_'Gand')_0
                    *              0             0               
   116 Route_5_('Liege',_'Gand')_0
                    *              0             0               
   117 Route_6_('Liege',_'Gand')_0
                    *              0             0               
   118 Route_7_('Liege',_'Gand')_0
                    *              0             0               
   119 Route_8_('Liege',_'Gand')_0
                    *              0             0               
   120 Route_9_('Liege',_'Gand')_0
                    *             26             0               
   121 Route_10_('Liege',_'Hasselt')_0
                    *              2             0               
   122 Route_11_('Liege',_'Hasselt')_0
                    *              0             0               
   123 Route_12_('Liege',_'Hasselt')_0
                    *              0             0               
   124 Route_13_('Liege',_'Hasselt')_0
                    *              0             0               
   125 Route_14_('Liege',_'Hasselt')_0
                    *             18             0               
   126 Route_15_('Liege',_'Hasselt')_0
                    *              0             0               
   127 Route_16_('Liege',_'Hasselt')_0
                    *              0             0               
   128 Route_17_('Liege',_'Hasselt')_0
                    *              0             0               
   129 Route_18_('Liege',_'Hasselt')_0
                    *              1             0               
   130 Route_19_('Liege',_'Hasselt')_0
                    *              0             0               
   131 Route_1_('Liege',_'Hasselt')_0
                    *              0             0               
   132 Route_20_('Liege',_'Hasselt')_0
                    *              0             0               
   133 Route_2_('Liege',_'Hasselt')_0
                    *              0             0               
   134 Route_3_('Liege',_'Hasselt')_0
                    *              0             0               
   135 Route_4_('Liege',_'Hasselt')_0
                    *              0             0               
   136 Route_5_('Liege',_'Hasselt')_0
                    *              0             0               
   137 Route_6_('Liege',_'Hasselt')_0
                    *              0             0               
   138 Route_7_('Liege',_'Hasselt')_0
                    *              0             0               
   139 Route_8_('Liege',_'Hasselt')_0
                    *              0             0               
   140 Route_9_('Liege',_'Hasselt')_0
                    *              0             0               
   141 Route_10_('Anvers',_'Liege')_0
                    *             11             0               
   142 Route_11_('Anvers',_'Liege')_0
                    *            384             0               
   143 Route_12_('Anvers',_'Liege')_0
                    *            175             0               
   144 Route_13_('Anvers',_'Liege')_0
                    *            367             0               
   145 Route_14_('Anvers',_'Liege')_0
                    *              3             0               
   146 Route_15_('Anvers',_'Liege')_0
                    *              0             0               
   147 Route_16_('Anvers',_'Liege')_0
                    *              0             0               
   148 Route_17_('Anvers',_'Liege')_0
                    *            371             0               
   149 Route_18_('Anvers',_'Liege')_0
                    *            159             0               
   150 Route_19_('Anvers',_'Liege')_0
                    *             28             0               
   151 Route_1_('Anvers',_'Liege')_0
                    *              0             0               
   152 Route_20_('Anvers',_'Liege')_0
                    *            286             0               
   153 Route_2_('Anvers',_'Liege')_0
                    *              0             0               
   154 Route_3_('Anvers',_'Liege')_0
                    *              0             0               
   155 Route_4_('Anvers',_'Liege')_0
                    *              0             0               
   156 Route_5_('Anvers',_'Liege')_0
                    *              0             0               
   157 Route_6_('Anvers',_'Liege')_0
                    *              0             0               
   158 Route_7_('Anvers',_'Liege')_0
                    *              0             0               
   159 Route_8_('Anvers',_'Liege')_0
                    *              0             0               
   160 Route_9_('Anvers',_'Liege')_0
                    *             34             0               

Integer feasibility conditions:

KKT.PE: max.abs.err = 2.27e-13 on row 11
        max.rel.err = 7.10e-17 on row 11
        High quality

KKT.PB: max.abs.err = 0.00e+00 on row 0
        max.rel.err = 0.00e+00 on row 0
        High quality

End of output
